47.28 8.33
45.4 9.24
43.28 -1.32
44.32 11.18
44.5 -0.43
46.55 7.3
47.35 7.32
49.27 2.07
49.01 2.33
43.33 6.57
45.4 -0.19
48.07 7.22
45.4 -0.19
47.16 5.05
49.22 0.1
45.32 4.18
48.19 6.04
43.49 11.12
50.02 8.34
45.22 5.2
44.25 8.5
46.14 6.07
48.58 2.27
45.27 9.16
49.37 6.12
45.44 4.56
44.25 8.5
45.27 9.16
47.45 7.26
43.35 3.58
43.26 5.13
48.08 11.42
45.38 8.43
49.05 6.08
43.4 7.13
45.56 6.06
49.3 11.05
48.43 2.23
48.43 2.23
46.35 0.18
43.41 10.24
43.23 -0.25
49.19 4.03
48.41 9.13
48.32 7.38
43.37 1.23
45.12 7.39
47.26 0.43
44.55 4.58
45.24 10.53
